NAME : mar50_1000_3
COMMENT : Data set with 50 points
COMMENT : CIn-UFPE
COMMENT : Contributed by Marcelo Lacerda
TYPE : TSP
DIMENSION : 50
EDGE_WEIGHT_TYPE : EUC_2D
NODE_COORD_SECTION
1 876 903
2 951 391
3 446 789
4 436 961
5 929 901
6 469 113
7 70 11
8 208 480
9 98 136
10 593 142
11 446 810
12 54 886
13 238 562
14 15 971
15 270 281
16 404 675
17 551 900
18 810 29
19 844 877
20 842 144
21 419 42
22 444 807
23 734 445
24 686 155
25 193 98
26 804 638
27 815 66
28 866 150
29 452 163
30 944 920
31 627 326
32 588 363
33 898 603
34 279 733
35 763 320
36 860 890
37 321 444
38 1 44
39 193 178
40 592 649
41 859 26
42 112 783
43 723 211
44 712 633
45 257 669
46 929 504
47 772 785
48 687 960
49 665 877
50 288 782
EOF
